VERTICES = 52
EDGES = 201
1 2
1 4
1 14
1 16
2 3
2 13
2 15
3 6
3 10
3 14
3 18
3 22
4 5
4 10
4 13
4 17
4 22
5 8
5 11
5 16
5 20
5 23
6 7
6 11
6 15
6 19
6 23
7 9
7 12
7 18
7 21
7 24
8 9
8 12
8 17
8 21
8 24
9 10
9 11
9 12
9 19
9 20
9 22
9 23
9 24
10 11
10 12
10 15
10 16
10 21
10 23
10 24
11 12
11 17
11 18
11 21
11 22
11 24
12 19
12 20
12 21
12 22
12 23
13 26
13 28
13 50
14 25
14 27
14 50
15 26
15 30
15 34
15 50
16 25
16 29
16 34
16 50
17 28
17 32
17 35
17 50
18 27
18 31
18 35
18 50
19 30
19 33
19 36
19 50
20 29
20 33
20 36
20 50
21 31
21 32
21 34
21 35
21 36
21 50
22 27
22 28
22 33
22 35
22 36
22 50
23 29
23 30
23 33
23 34
23 36
23 50
24 31
24 32
24 33
24 34
24 35
24 50
25 38
25 40
25 51
26 37
26 39
26 51
27 38
27 42
27 46
27 51
28 37
28 41
28 46
28 51
29 40
29 44
29 47
29 51
30 39
30 43
30 47
30 51
31 42
31 45
31 48
31 51
32 41
32 45
32 48
32 51
33 43
33 44
33 46
33 47
33 48
33 51
34 39
34 40
34 45
34 47
34 48
34 51
35 41
35 42
35 45
35 46
35 48
35 51
36 43
36 44
36 45
36 46
36 47
36 51
37 49
37 52
38 49
38 52
39 49
39 52
40 49
40 52
41 49
41 52
42 49
42 52
43 49
43 52
44 49
44 52
45 49
45 52
46 49
46 52
47 49
47 52
48 49
48 52
49 50
49 51
49 52
50 51
50 52
51 52
